(set-logic QF_LIA)
(set-info :ran/ran_6_2.smt2)
(set-info :smt-lib-version 2.0)
(declare-fun x0 () Int)
(declare-fun x1 () Int)
(declare-fun x2 () Int)
(declare-fun x3 () Int)
(declare-fun x4 () Int)
(declare-fun x5 () Int)
(define-fun ie0 () Bool (<= (+ (* (- 19) x2) (* (- 94) x4) ) 1))
(define-fun ie1 () Bool (<= (+ (* 8 x5) (* 11 x1) ) 62))
(define-fun ie2 () Bool (<= (+ (* 71 x4) (* 60 x0) ) 36))
(define-fun ie3 () Bool (<= (+ (* 22 x3) (* (- 30) x2) ) (- 18)))
(define-fun ie4 () Bool (<= (+ (* (- 18) x3) (* 30 x1) ) 50))
(define-fun ie5 () Bool (<= (+ (* 35 x2) (* (- 68) x1) ) 73))
(define-fun ie6 () Bool (<= (+ (* (- 57) x2) (* (- 9) x5) ) (- 32)))
(define-fun ie7 () Bool (<= (+ (* 45 x5) (* (- 28) x2) ) (- 40)))
(define-fun ie8 () Bool (<= (+ (* (- 66) x1) (* 88 x4) ) (- 46)))
(define-fun ie9 () Bool (<= (+ (* (- 24) x2) (* (- 9) x0) ) 91))
(define-fun ie10 () Bool (<= (+ (* 73 x4) (* 46 x1) ) (- 83)))
(define-fun ie11 () Bool (<= (+ (* (- 52) x0) (* 63 x4) ) 63))
(define-fun ie12 () Bool (<= (+ (* (- 12) x5) (* 69 x2) ) (- 24)))
(define-fun ie13 () Bool (<= (+ (* (- 62) x5) (* 85 x0) ) (- 15)))
(define-fun ie14 () Bool (<= (+ (* (- 55) x2) (* (- 84) x5) ) 47))
(define-fun ie15 () Bool (<= (+ (* (- 30) x3) (* 19 x1) ) (- 92)))
(define-fun ie16 () Bool (<= (+ (* 10 x4) (* 88 x3) ) 89))
(define-fun ie17 () Bool (<= (+ (* 58 x1) (* 79 x1) ) (- 10)))
(define-fun ie18 () Bool (<= (+ (* 42 x2) (* 65 x0) ) (- 6)))
(define-fun ie19 () Bool (<= (+ (* 94 x2) (* 23 x5) ) 16))
(define-fun ie20 () Bool (<= (+ (* (- 92) x3) (* 16 x2) ) (- 90)))
(define-fun ie21 () Bool (<= (+ (* (- 37) x3) (* 20 x1) ) (- 92)))
(define-fun ie22 () Bool (<= (+ (* (- 20) x1) (* (- 5) x2) ) (- 46)))
(define-fun ie23 () Bool (<= (+ (* (- 16) x4) (* 12 x4) ) 0))
(define-fun ie24 () Bool (<= (+ (* (- 98) x0) (* (- 86) x1) ) 74))
(define-fun ie25 () Bool (<= (+ (* 8 x1) (* (- 72) x5) ) (- 7)))
(define-fun ie26 () Bool (<= (+ (* 44 x5) (* 18 x1) ) (- 85)))
(define-fun ie27 () Bool (<= (+ (* 28 x0) (* (- 38) x0) ) (- 41)))
(define-fun ie28 () Bool (<= (+ (* (- 29) x4) (* (- 43) x4) ) 49))
(define-fun ie29 () Bool (<= (+ (* 11 x4) (* 27 x1) ) (- 82)))
(define-fun ie30 () Bool (<= (+ (* (- 73) x3) (* 29 x3) ) (- 3)))
(define-fun ie31 () Bool (<= (+ (* 3 x5) (* (- 90) x4) ) (- 16)))
(define-fun ie32 () Bool (<= (+ (* 3 x2) (* (- 25) x3) ) (- 59)))
(define-fun ie33 () Bool (<= (+ (* (- 57) x0) (* 18 x3) ) (- 94)))
(define-fun ie34 () Bool (<= (+ (* 29 x0) (* (- 13) x0) ) (- 54)))
(define-fun ie35 () Bool (<= (+ (* 88 x4) (* (- 51) x5) ) (- 75)))
(define-fun ie36 () Bool (<= (+ (* (- 81) x1) (* 55 x4) ) 36))
(define-fun ie37 () Bool (<= (+ (* (- 48) x0) (* 90 x2) ) (- 12)))
(define-fun ie38 () Bool (<= (+ (* (- 26) x2) (* (- 32) x0) ) (- 57)))
(define-fun ie39 () Bool (<= (+ (* 10 x1) (* (- 51) x0) ) (- 50)))
(assert ie0)
(assert ie1)
(assert ie2)
(assert ie3)
(assert ie4)
(assert ie5)
(assert ie6)
(assert ie7)
(assert ie8)
(assert ie9)
(assert ie10)
(assert ie11)
(assert ie12)
(assert ie13)
(assert ie14)
(assert ie15)
(assert ie16)
(assert ie17)
(assert ie18)
(assert ie19)
(assert ie20)
(assert ie21)
(assert ie22)
(assert ie23)
(assert ie24)
(assert ie25)
(assert ie26)
(assert ie27)
(assert ie28)
(assert ie29)
(assert ie30)
(assert ie31)
(assert ie32)
(assert ie33)
(assert ie34)
(assert ie35)
(assert ie36)
(assert ie37)
(assert ie38)
(assert ie39)
(check-sat)
(exit)
